[[12, 40, 39, 9, 25, 55, 18, 50, 32, 44, 3, 24, 49, 16, 63, 23, 56, 43, 41, 42, 64, 22, 73, 33, 62, 28, 2, 74, 30, 48, 47, 21, 61, 69], [36, 71, 60, 70, 20, 37, 5, 15, 57, 29, 45, 27, 13, 52, 34, 4, 75, 68, 6, 51, 17, 76, 26, 67, 46, 7, 35, 8, 54, 19, 14, 59, 53, 11, 66, 65, 38, 10, 31, 58, 72]]